unsat
(define-fun inv ((i Int) (y Int) (l Int)) Bool (let ((_let_1 (- 1))) (let ((_let_2 (* _let_1 i))) (and (<= (+ _let_2 _let_2) 1) (<= (+ (* _let_1 l) (* 1 y)) 0)))))
0.90user 0.00system 0:00.90elapsed 100%CPU (0avgtext+0avgdata 34028maxresident)k
0inputs+8outputs (0major+3105minor)pagefaults 0swaps
